c Reduced graph for GEOM30b_2 generated by Cyril Grelier
p edge 27 74
e 1 8
e 1 9
e 1 13
e 1 18
e 1 22
e 1 25
e 1 26
e 2 7
e 2 14
e 2 16
e 2 17
e 2 20
e 2 23
e 2 24
e 3 4
e 3 5
e 3 15
e 3 16
e 3 19
e 3 23
e 4 5
e 4 10
e 4 15
e 4 19
e 5 11
e 5 19
e 5 23
e 6 8
e 6 9
e 6 10
e 6 15
e 6 25
e 7 14
e 7 17
e 7 20
e 7 24
e 8 9
e 8 25
e 8 26
e 9 15
e 9 25
e 10 15
e 10 25
e 11 21
e 11 27
e 12 17
e 12 18
e 12 22
e 13 22
e 13 26
e 15 19
e 15 25
e 16 17
e 16 18
e 16 19
e 16 23
e 16 24
e 17 18
e 17 23
e 17 24
e 18 22
e 18 26
e 19 23
e 20 21
e 20 23
e 20 24
e 20 27
e 21 23
e 21 24
e 21 27
e 22 26
e 23 24
e 23 27
e 24 27
